
(set-logic ALL) 

(declare-datatype MyList ((Nil) (Cons (head Real) (tail MyList)) )) 
(declare-fun l0 () MyList) 
(declare-fun l1 () MyList) 
(declare-fun l2 () MyList) 
(declare-fun l3 () MyList) 
(declare-fun i0 () Real) 
(declare-fun i1 () Real) 
(assert (is-Cons l2) )
(assert (or (= l1 Nil) (= l3 Nil) (= l3 l3)) )
(assert (not (is-Cons l0)) )
(assert (is-Nil l2) )
(assert (is-Nil Nil) )
(assert (is-Cons Nil) )
(assert (is-Cons l3) )
(assert (= l0 l1) )
(check-sat)
